%chk=H2.chk
%mem=4GB
%nprocshared=4
# HF/STO-3G Units=AU

H2

0 1
H 0.0 0.0 0.0
H 0.0 0.0 1.4


